NAME: rue_25_1
TYPE: TSP
DIMENSION: 25
EDGE_WEIGHT_TYPE: EUC_2D
NODE_COORD_SECTION
1 29 22
2 8 2
3 28 6
4 34 1
5 15 7
6 15 25
7 22 37
8 34 29
9 39 16
10 32 3
11 27 4
12 5 13
13 24 12
14 23 6
15 17 18
16 19 20
17 24 20
18 28 16
19 14 12
20 32 15
21 4 5
22 7 15
23 5 33
24 26 34
25 9 5

